(set-logic QF_SLIA)
(set-option :produce-models true)
(declare-fun x () String)
(assert (str.in_re x (re.++ (re.+ (re.++ (str.to_re "320") (re.* (re.range "4" "8")))) (str.to_re "555522") (re.opt (re.range "3" "7")))))
(assert (= (mod (mod (str.to_int x) 157) 87) 34))
(assert (< (str.len x) 100))
(check-sat)
(get-model)